data/solutions/recovery/degenerate/moderate/flexible/degenerate_moderate_instance1/30.sol
Elapsed time: 0.09
Upper bound: 237116.0
Planning weighted value: 1657135.0
C[0]=237116.0
C[1]=237023.0
C[2]=236997.0
y[0]=1
y[1]=2
y[2]=0
y[3]=2
y[4]=0
y[5]=1
y[6]=0
y[7]=2
y[8]=0
y[9]=1
y[10]=0
y[11]=1
y[12]=2
y[13]=1
y[14]=0
y[15]=1
y[16]=2
y[17]=1
y[18]=2
y[19]=1
y[20]=0
y[21]=2
